unknown
(model
; cardinality of BoundSet is 1
(declare-sort BoundSet 0)
; rep: @uc_BoundSet_0
; cardinality of UnboundSet is 1
(declare-sort UnboundSet 0)
(declare-fun groundTerm_2 () UnboundSet)
(define-fun IsClear ((BOUND_VARIABLE_362 BoundSet)) Bool true)
(define-fun IsDay ((BOUND_VARIABLE_362 BoundSet)) Bool false)
(define-fun IsOutside ((BOUND_VARIABLE_362 BoundSet)) Bool false)
)
sat
(model
; cardinality of BoundSet is 1
(declare-sort BoundSet 0)
; rep: @uc_BoundSet_0
; cardinality of UnboundSet is 1
(declare-sort UnboundSet 0)
(declare-fun groundTerm_4 () UnboundSet)
(define-fun IsClear ((BOUND_VARIABLE_383 BoundSet)) Bool true)
(define-fun IsDay ((BOUND_VARIABLE_383 BoundSet)) Bool false)
(define-fun IsOutside ((BOUND_VARIABLE_383 BoundSet)) Bool false)
)
